% File represents an instance of a Composite Structure problem to be solved by a CP framework
% Created on 2025-03-26 10:41:29.565
T = 50;
n = 25;
m = 40;
edges = [(2, 1),
(7, 6),
(12, 11),
(17, 16),
(22, 21),
(2, 3),
(8, 7),
(13, 12),
(18, 17),
(23, 22),
(4, 3),
(8, 9),
(14, 13),
(19, 18),
(23, 24),
(5, 4),
(10, 9),
(15, 14),
(20, 19),
(25, 24),
(1, 6),
(6, 11),
(16, 11),
(21, 16),
(2, 7),
(7, 12),
(17, 12),
(22, 17),
(8, 3),
(8, 13),
(18, 13),
(23, 18),
(4, 9),
(14, 9),
(19, 14),
(19, 24),
(5, 10),
(15, 10),
(20, 15),
(20, 25)];
counts = [|10, 8, 10, 10,
|12, 8, 12, 10,
|12, 8, 12, 8,
|12, 10, 12, 8,
|12, 14, 12, 10,
|10, 4, 10, 10,
|12, 6, 12, 10,
|12, 8, 12, 10,
|12, 6, 12, 8,
|12, 10, 12, 8,
|8, 4, 8, 10,
|10, 4, 10, 10,
|12, 4, 12, 10,
|12, 8, 12, 10,
|12, 10, 12, 10,
|10, 6, 10, 10,
|12, 6, 12, 10,
|12, 10, 12, 10,
|12, 14, 12, 10,
|12, 16, 12, 10,
|10, 8, 10, 12,
|12, 10, 12, 12,
|12, 12, 12, 12,
|12, 12, 12, 6,
|12, 12, 12, 10|];
